0	147	186	47	113	45	143	177	103	74	144	
32	0	113	40	136	130	53	186	75	98	122	
92	119	0	161	140	80	86	32	59	85	43	
104	127	43	0	24	148	154	57	118	43	93	
109	25	115	140	0	152	172	190	138	75	86	
40	181	81	44	195	0	162	173	158	58	46	
121	160	140	64	141	114	0	186	154	200	72	
100	27	109	95	48	30	98	0	149	84	53	
43	130	125	42	94	139	34	147	0	167	165	
73	67	146	56	162	38	106	46	28	0	140	
78	94	123	95	161	119	140	70	37	67	0	
